language ESSENCE' 1.0

letting setA_Occurrence be
        [false, false, true, false, true, true, true, true, true, false, true, false, false, false, false, false, true,
         false, true, true;
             int(1..20)]
letting setB_Occurrence be
        [true, true, false, true, false, false, false, false, false, true, false, true, true, true, true, true, false,
         true, false, false;
             int(1..20)]
